 vasp.6.3.0 20Jan22 (build Feb 23 2022 13:54:07) complex

 executed on             LinuxIFC date 2022.07.05  09:23:53

 INCAR:
   SYSTEM = FeX
   EDIFF = 1.0e-06
   EDIFFG = -0.001
   ENCUT = 500
   NELM = 300
   IBRION = -1
   PREC = Accurate
   ISTART = 0
   ISMEAR = 1
   SIGMA = 0.10
   AMIX = 0.1
   BMIX = 0.01
   AMIX_MAG = 0.2
   BMIZ_MAG = 0.02
   ALGO = NORMAL
   LREAL = AUTO

 POTCAR:    PAW_PBE Fe 06Sep2000
 POTCAR:    PAW_PBE Co 02Aug2007
|           W    W    AA    RRRRR   N    N  II  N    N   GGGG   !!!           |
|           W    W   A  A   R    R  NN   N  II  NN   N  G    G  !!!           |
|           W    W  A    A  R    R  N N  N  II  N N  N  G       !!!           |
|           W WW W  AAAAAA  RRRRR   N  N N  II  N  N N  G  GGG   !            |
|           WW  WW  A    A  R   R   N   NN  II  N   NN  G    G                |
|           W    W  A    A  R    R  N    N  II  N    N   GGGG   !!!           |
|     For optimal performance we recommend to set                             |
|       NCORE = 2 up to number-of-cores-per-socket                            |
|     This setting can greatly improve the performance of VASP for DFT.       |
|     The default, NCORE=1 might be grossly inefficient on modern             |
|     multi-core architectures or massively parallel machines. Do your        |
|     Unfortunately you need to use the default for GW and RPA                |
|     calculations (for HF NCORE is supported but not extensively tested      |
|     yet).                                                                   |

 POTCAR:    PAW_PBE Fe 06Sep2000
   VRHFIN =Fe:  d7 s1

   TITEL  = PAW_PBE Fe 06Sep2000
   POMASS =   55.847; ZVAL   =    8.000    mass and valenz
   ENMAX  =  267.882; ENMIN  =  200.911 eV

 POTCAR:    PAW_PBE Co 02Aug2007
   VRHFIN =Co: d8 s1

   TITEL  = PAW_PBE Co 02Aug2007
   POMASS =   58.933; ZVAL   =    9.000    mass and valenz
   ENMAX  =  267.968; ENMIN  =  200.976 eV

 Optimization of the real space projectors (new method)

 maximal supplied QI-value         = 16.25
 optimisation between [QCUT,QGAM] = [ 11.38, 22.75] = [ 36.24,144.96] Ry
 Optimized for a Real-space Cutoff    1.52 Angstroem

   l    n(q)    QCUT    max X(q) W(low)/X(q) W(high)/X(q)  e(spline)
   2      9    11.376    80.901    0.22E-03    0.86E-04    0.27E-06
   2      9    11.376    75.754    0.23E-03    0.87E-04    0.27E-06
   0     10    11.376    58.752    0.56E-04    0.38E-04    0.25E-06
   0     10    11.376    30.679    0.47E-04    0.35E-04    0.23E-06
   1     10    11.376    17.977    0.50E-04    0.42E-04    0.12E-06
   1     10    11.376    13.559    0.42E-04    0.37E-04    0.11E-06
 Optimization of the real space projectors (new method)

 maximal supplied QI-value         = 16.25
 optimisation between [QCUT,QGAM] = [ 11.38, 22.75] = [ 36.24,144.96] Ry
 Optimized for a Real-space Cutoff    1.43 Angstroem

   l    n(q)    QCUT    max X(q) W(low)/X(q) W(high)/X(q)  e(spline)
   2      9    11.376    65.824    0.18E-03    0.28E-04    0.14E-06
   2      9    11.376    61.429    0.18E-03    0.29E-04    0.14E-06
   0     10    11.376    56.174    0.51E-04    0.12E-03    0.20E-06
   0     10    11.376    31.263    0.46E-04    0.11E-03    0.18E-06
   1      9    11.376    19.828    0.23E-03    0.17E-03    0.10E-06
   1      9    11.376    15.139    0.20E-03    0.14E-03    0.89E-07
  PAW_PBE Fe 06Sep2000                  :
  PAW_PBE Co 02Aug2007                  :

 POSCAR: Fe7 Co1
  positions in direct lattice
 exchange correlation table for  LEXCH =        8
   RHO(1)=    0.500       N(1)  =     2000
   RHO(2)=  100.500       N(2)  =     4000

 ion  position               nearest neighbor table
   1  0.000  0.500  0.500-   4 2.48   5 2.48   6 2.48   7 2.48   5 2.48   4 2.48   7 2.48   6 2.48
                             3 2.86   8 2.86   8 2.86   2 2.86   3 2.86   2 2.86
   2  0.500  0.500  0.000-   4 2.48   5 2.48   6 2.48   7 2.48   7 2.48   6 2.48   5 2.48   4 2.48
                             3 2.86   3 2.86   8 2.86   1 2.86   8 2.86   1 2.86
   3  0.500  0.000  0.500-   4 2.48   5 2.48   6 2.48   7 2.48   6 2.48   7 2.48   4 2.48   5 2.48
                             2 2.86   2 2.86   8 2.86   8 2.86   1 2.86   1 2.86
   4  0.000  0.000  0.500-   1 2.48   2 2.48   3 2.48   8 2.48   8 2.48   1 2.48   3 2.48   2 2.48
                             7 2.86   5 2.86   5 2.86   6 2.86   7 2.86   6 2.86
   5  0.000  0.500  0.000-   1 2.48   2 2.48   3 2.48   8 2.48   1 2.48   8 2.48   2 2.48   3 2.48
                             7 2.86   4 2.86   4 2.86   7 2.86   6 2.86   6 2.86
   6  0.500  0.000  0.000-   1 2.48   2 2.48   3 2.48   8 2.48   3 2.48   2 2.48   8 2.48   1 2.48
                             7 2.86   7 2.86   4 2.86   4 2.86   5 2.86   5 2.86
   7  0.500  0.500  0.500-   1 2.48   2 2.48   3 2.48   8 2.48   2 2.48   3 2.48   1 2.48   8 2.48
                             6 2.86   6 2.86   4 2.86   5 2.86   4 2.86   5 2.86
   8  0.000  0.000  0.000-   4 2.48   5 2.48   6 2.48   7 2.48   4 2.48   5 2.48   6 2.48   7 2.48
                             3 2.86   1 2.86   1 2.86   3 2.86   2 2.86   2 2.86

  LATTYP: Found a body centered cubic cell.
 ALAT       =     5.7211440000

  Lattice vectors:

 A1 = (  -2.8605720000,   2.8605720000,   2.8605720000)
 A2 = (   2.8605720000,  -2.8605720000,   2.8605720000)
 A3 = (   2.8605720000,   2.8605720000,  -2.8605720000)

Analysis of symmetry for initial positions (statically):
 Subroutine PRICEL returns:
 Original cell was already a primitive cell.

 Routine SETGRP: Setting up the symmetry group for a
 body centered cubic supercell.

 Subroutine GETGRP returns: Found 48 space group operations
 (whereof 48 operations were pure point group operations)
 out of a pool of 48 trial point group operations.

The static configuration has the point symmetry O_h .

Analysis of symmetry for dynamics (positions and initial velocities):
 Subroutine PRICEL returns:
 Original cell was already a primitive cell.

 Routine SETGRP: Setting up the symmetry group for a
 body centered cubic supercell.

 Subroutine GETGRP returns: Found 48 space group operations
 (whereof 48 operations were pure point group operations)
 out of a pool of 48 trial point group operations.

The dynamic configuration has the point symmetry O_h .

 Subroutine INISYM returns: Found 48 space group operations
 (whereof 48 operations are pure point group operations),
 and found     1 'primitive' translations

                                     Primitive cell

  volume of cell :      93.6308

  direct lattice vectors                    reciprocal lattice vectors
    -2.860572000  2.860572000  2.860572000    -0.000000000  0.174790217  0.174790217
     2.860572000 -2.860572000  2.860572000     0.174790217 -0.000000000  0.174790217
     2.860572000  2.860572000 -2.860572000     0.174790217  0.174790217 -0.000000000

  length of vectors
     4.954656043  4.954656043  4.954656043     0.247190695  0.247190695  0.247190695

  position of ions in fractional coordinates (direct lattice)
     0.000000000  0.500000000  0.500000000
     0.500000000  0.500000000  1.000000000
     0.500000000  0.000000000  0.500000000
     1.000000000  1.000000000  0.500000000
     0.000000000  0.500000000  1.000000000
     0.500000000  0.000000000  1.000000000
     0.500000000  0.500000000  0.500000000
     0.000000000  0.000000000  0.000000000

  ion indices of the primitive-cell ions
   primitive index   ion index
                 1           1
                 2           2
                 3           3
                 4           4
                 5           5
                 6           6
                 7           7
                 8           8

 KPOINTS: Self-generated KPOINTS with latt*nkp pro

Automatic generation of k-mesh.
 Grid dimensions derived from RKLEN:
 generate k-points for:   12   12   12

 Generating k-lattice:

  Cartesian coordinates                     Fractional coordinates (reciprocal lattice)
    -0.000000000  0.014565851  0.014565851     0.083333333 -0.000000000  0.000000000
     0.014565851 -0.000000000  0.014565851    -0.000000000  0.083333333  0.000000000
     0.014565851  0.014565851 -0.000000000     0.000000000 -0.000000000  0.083333333

  Length of vectors
     0.020599225  0.020599225  0.020599225

  Shift w.r.t. Gamma in fractional coordinates (k-lattice)
     0.000000000  0.000000000  0.000000000

 Subroutine IBZKPT returns following result:

 Found     72 irreducible k-points:

 Following reciprocal coordinates:
            Coordinates               Weight
  0.000000  0.000000  0.000000      1.000000
  0.083333  0.000000  0.000000     12.000000
  0.166667 -0.000000  0.000000     12.000000
  0.250000  0.000000 -0.000000     12.000000
  0.333333  0.000000  0.000000     12.000000
  0.416667 -0.000000  0.000000     12.000000
  0.500000  0.000000 -0.000000      6.000000
  0.083333  0.083333 -0.000000     24.000000
  0.166667  0.083333 -0.000000     48.000000
  0.250000  0.083333  0.000000     48.000000
  0.333333  0.083333 -0.000000     48.000000
  0.416667  0.083333  0.000000     48.000000
  0.166667  0.166667  0.000000     24.000000
  0.250000  0.166667  0.000000     48.000000
  0.333333  0.166667 -0.000000     48.000000
  0.416667  0.166667  0.000000     24.000000
  0.250000  0.250000 -0.000000     24.000000
  0.333333  0.250000  0.000000     48.000000
  0.333333  0.333333 -0.000000      8.000000
  0.083333  0.083333  0.083333      8.000000
  0.166667  0.083333  0.083333     24.000000
  0.250000  0.083333  0.083333     24.000000
  0.333333  0.083333  0.083333     24.000000
  0.416667  0.083333  0.083333     12.000000
 -0.083333  0.083333  0.083333      6.000000
  0.166667  0.166667  0.083333     24.000000
  0.250000  0.166667  0.083333     48.000000
  0.333333  0.166667  0.083333     48.000000
 -0.166667  0.166667  0.083333     24.000000
  0.250000  0.250000  0.083333     24.000000
  0.333333  0.250000  0.083333     24.000000
 -0.250000  0.250000  0.083333     24.000000
 -0.166667  0.250000  0.083333     24.000000
 -0.333333  0.333333  0.083333     24.000000
 -0.250000  0.333333  0.083333     48.000000
 -0.416667  0.416667  0.083333     24.000000
 -0.333333  0.416667  0.083333     48.000000
 -0.250000  0.416667  0.083333     24.000000
  0.500000  0.500000  0.083333     12.000000
 -0.416667  0.500000  0.083333     48.000000
 -0.333333  0.500000  0.083333     48.000000
 -0.416667 -0.416667  0.083333     24.000000
 -0.333333 -0.416667  0.083333     24.000000
  0.166667  0.166667  0.166667      8.000000
  0.250000  0.166667  0.166667     24.000000
  0.333333  0.166667  0.166667     12.000000
 -0.166667  0.166667  0.166667      6.000000
  0.250000  0.250000  0.166667     24.000000
 -0.250000  0.250000  0.166667     24.000000
 -0.333333  0.333333  0.166667     24.000000
 -0.250000  0.333333  0.166667     24.000000
 -0.416667  0.416667  0.166667     24.000000
 -0.333333  0.416667  0.166667     48.000000
  0.500000  0.500000  0.166667     12.000000
 -0.416667  0.500000  0.166667     48.000000
 -0.333333  0.500000  0.166667     24.000000
 -0.416667 -0.416667  0.166667     24.000000
  0.250000  0.250000  0.250000      2.000000
[...]
   0.00000000  0.50000000  0.00000000
   0.50000000  0.00000000  0.00000000
   0.50000000  0.50000000  0.50000000
   0.00000000  0.00000000  0.00000000

 position of ions in cartesian coordinates  (Angst):
   2.86057200  0.00000000  0.00000000
   0.00000000  0.00000000  2.86057200
   0.00000000  2.86057200  0.00000000
   1.43028600  1.43028600 -1.43028600
   1.43028600 -1.43028600  1.43028600
  -1.43028600  1.43028600  1.43028600
   1.43028600  1.43028600  1.43028600
   0.00000000  0.00000000  0.00000000

 k-point   1 :   0.0000 0.0000 0.0000  plane waves:    2347
 k-point   2 :   0.0833 0.0000 0.0000  plane waves:    2369
 k-point   3 :   0.1667-0.0000 0.0000  plane waves:    2373
 k-point   4 :   0.2500 0.0000-0.0000  plane waves:    2367
 k-point   5 :   0.3333 0.0000 0.0000  plane waves:    2365
 k-point   6 :   0.4167-0.0000 0.0000  plane waves:    2376
 k-point   7 :   0.5000 0.0000-0.0000  plane waves:    2390
 k-point   8 :   0.0833 0.0833-0.0000  plane waves:    2374
 k-point   9 :   0.1667 0.0833-0.0000  plane waves:    2370
 k-point  10 :   0.2500 0.0833 0.0000  plane waves:    2368
 k-point  11 :   0.3333 0.0833-0.0000  plane waves:    2373
 k-point  12 :   0.4167 0.0833 0.0000  plane waves:    2369
 k-point  13 :   0.1667 0.1667 0.0000  plane waves:    2369
 k-point  14 :   0.2500 0.1667 0.0000  plane waves:    2373
 k-point  15 :   0.3333 0.1667-0.0000  plane waves:    2372
 k-point  16 :   0.4167 0.1667 0.0000  plane waves:    2371
 k-point  17 :   0.2500 0.2500-0.0000  plane waves:    2369
 k-point  18 :   0.3333 0.2500 0.0000  plane waves:    2376
 k-point  19 :   0.3333 0.3333-0.0000  plane waves:    2385
 k-point  20 :   0.0833 0.0833 0.0833  plane waves:    2385
 k-point  21 :   0.1667 0.0833 0.0833  plane waves:    2375
 k-point  22 :   0.2500 0.0833 0.0833  plane waves:    2372
 k-point  23 :   0.3333 0.0833 0.0833  plane waves:    2361
 k-point  24 :   0.4167 0.0833 0.0833  plane waves:    2362
 k-point  25 :  -0.0833 0.0833 0.0833  plane waves:    2375
 k-point  26 :   0.1667 0.1667 0.0833  plane waves:    2376
 k-point  27 :   0.2500 0.1667 0.0833  plane waves:    2373
 k-point  28 :   0.3333 0.1667 0.0833  plane waves:    2367
 k-point  29 :  -0.1667 0.1667 0.0833  plane waves:    2371
 k-point  30 :   0.2500 0.2500 0.0833  plane waves:    2368
 k-point  31 :   0.3333 0.2500 0.0833  plane waves:    2374
 k-point  32 :  -0.2500 0.2500 0.0833  plane waves:    2362
 k-point  33 :  -0.1667 0.2500 0.0833  plane waves:    2377
 k-point  34 :  -0.3333 0.3333 0.0833  plane waves:    2375
 k-point  35 :  -0.2500 0.3333 0.0833  plane waves:    2373
 k-point  36 :  -0.4167 0.4167 0.0833  plane waves:    2374
 k-point  37 :  -0.3333 0.4167 0.0833  plane waves:    2377
 k-point  38 :  -0.2500 0.4167 0.0833  plane waves:    2376
 k-point  39 :   0.5000 0.5000 0.0833  plane waves:    2368
 k-point  40 :  -0.4167 0.5000 0.0833  plane waves:    2377
 k-point  41 :  -0.3333 0.5000 0.0833  plane waves:    2384
 k-point  42 :  -0.4167-0.4167 0.0833  plane waves:    2386
 k-point  43 :  -0.3333-0.4167 0.0833  plane waves:    2380
 k-point  44 :   0.1667 0.1667 0.1667  plane waves:    2358
 k-point  45 :   0.2500 0.1667 0.1667  plane waves:    2381
 k-point  46 :   0.3333 0.1667 0.1667  plane waves:    2374
 k-point  47 :  -0.1667 0.1667 0.1667  plane waves:    2379
 k-point  48 :   0.2500 0.2500 0.1667  plane waves:    2366
 k-point  49 :  -0.2500 0.2500 0.1667  plane waves:    2373
 k-point  50 :  -0.3333 0.3333 0.1667  plane waves:    2380
 k-point  51 :  -0.2500 0.3333 0.1667  plane waves:    2390
 k-point  52 :  -0.4167 0.4167 0.1667  plane waves:    2380
 k-point  53 :  -0.3333 0.4167 0.1667  plane waves:    2389
 k-point  54 :   0.5000 0.5000 0.1667  plane waves:    2394
 k-point  55 :  -0.4167 0.5000 0.1667  plane waves:    2387
 k-point  56 :  -0.3333 0.5000 0.1667  plane waves:    2385
 k-point  57 :  -0.4167-0.4167 0.1667  plane waves:    2383
 k-point  58 :   0.2500 0.2500 0.2500  plane waves:    2388
 k-point  59 :  -0.2500 0.2500 0.2500  plane waves:    2374
 k-point  60 :  -0.3333 0.3333 0.2500  plane waves:    2389
 k-point  61 :  -0.4167 0.4167 0.2500  plane waves:    2386
 k-point  62 :  -0.3333 0.4167 0.2500  plane waves:    2391
 k-point  63 :   0.5000 0.5000 0.2500  plane waves:    2374
 k-point  64 :  -0.4167 0.5000 0.2500  plane waves:    2389
 k-point  65 :  -0.4167-0.4167 0.2500  plane waves:    2403
 k-point  66 :  -0.3333 0.3333 0.3333  plane waves:    2390
 k-point  67 :  -0.4167 0.4167 0.3333  plane waves:    2387
 k-point  68 :   0.5000 0.5000 0.3333  plane waves:    2394
 k-point  69 :  -0.4167 0.5000 0.3333  plane waves:    2392
 k-point  70 :  -0.4167 0.4167 0.4167  plane waves:    2398
 k-point  71 :   0.5000 0.5000 0.4167  plane waves:    2412
 k-point  72 :   0.5000 0.5000 0.5000  plane waves:    2382

 maximum and minimum number of plane-waves per node :      2412     2347

 maximum number of plane-waves:      2412
 maximum index in each direction:
   IXMAX=    9   IYMAX=    9   IZMAX=    9
   IXMIN=   -9   IYMIN=   -9   IZMIN=   -9

 serial   3D FFT for wavefunctions
 parallel 3D FFT for charge:
    minimum data exchange during FFTs selected (reduces bandwidth)

 Broyden mixing: mesh for mixing (old mesh)
   NGX = 19   NGY = 19   NGZ = 19
  (NGX  = 72   NGY  = 72   NGZ  = 72)
  gives a total of   6859 points

 initial charge density was supplied:
 charge density of overlapping atoms calculated
 number of electron      65.0000000 magnetization
 keeping initial charge density in first step

 Maximum index for non-local projection operator         7119
 Maximum index for augmentation-charges          798 (set IRDMAX)

 First call to EWALD:  gamma=   0.390
 Maximum number of real-space cells 3x 3x 3
 Maximum number of reciprocal cells 3x 3x 3

--------------------------------------- Iteration      1(   1)  ---------------------------------------

 eigenvalue-minimisations  :  6912
 total energy-change (2. order) : 0.3684255E+03  (-0.2788912E+04)
 number of electron      65.0000000 magnetization
 augmentation part       65.0000000 magnetization

 Free energy of the ion-electron system (eV)
  alpha Z        PSCENC =       452.49678218
  Ewald energy   TEWEN  =     -4840.92237976
  -Hartree energ DENC   =      -959.17816412
  -exchange      EXHF   =         0.00000000
  -V(xc)+E(xc)   XCENC  =        43.28285333
  PAW double counting   =      4604.93225352    -4711.87889178
  entropy T*S    EENTRO =        -0.00218188
  eigenvalues    EBANDS =       806.14231269
  atomic energy  EATOM  =      4973.55287360
  Solvation  Ediel_sol  =         0.00000000
  free energy    TOTEN  =       368.42545777 eV

  energy without entropy =      368.42763965  energy(sigma->0) =      368.42618507

[...]

 eigenvalue-minimisations  :  6912
 total energy-change (2. order) :-0.4256581E+03  (-0.4119281E+03)
 number of electron      65.0000000 magnetization
 augmentation part       65.0000000 magnetization

[...]

 eigenvalue-minimisations  :  8880
 total energy-change (2. order) :-0.6160317E-02  (-0.6159190E-02)
 number of electron      64.9999999 magnetization
 augmentation part       29.4422002 magnetization

 Broyden mixing:
  rms(total) = 0.30187E+01    rms(broyden)= 0.30187E+01
  rms(prec ) = 0.58148E+01
  weight for this iteration     100.00

[...]

 eigenvalues of (default mixing * dielectric matrix)
  average eigenvalue GAMMA=   0.8284
  0.8284

[...]

 Broyden mixing:
  rms(total) = 0.24651E-02    rms(broyden)= 0.24650E-02
  rms(prec ) = 0.62498E-02
  weight for this iteration     100.00

 eigenvalues of (default mixing * dielectric matrix)
  average eigenvalue GAMMA=   2.6597
 11.2178  9.5156  7.9266  4.6410  3.2502  2.7944  0.2489  0.2960  1.3478  1.3478
  0.5659  1.0290  1.0290  0.9196  0.9196  0.9107  0.8065  0.8837  0.8837

[...]

--------------------------------------- Iteration      1(  25)  ---------------------------------------

 eigenvalue-minimisations  :  3816
 total energy-change (2. order) : 0.2231600E-06  (-0.8070924E-07)
 number of electron      65.0000000 magnetization
 augmentation part       34.1383777 magnetization

 Free energy of the ion-electron system (eV)
  alpha Z        PSCENC =       452.49678218
  Ewald energy   TEWEN  =     -4840.92237976
  -Hartree energ DENC   =      -823.35663809
  -exchange      EXHF   =         0.00000000
  -V(xc)+E(xc)   XCENC  =        36.98449893
  PAW double counting   =      5596.35741303    -5706.69438734
  entropy T*S    EENTRO =         0.00204659
  eigenvalues    EBANDS =       251.45725546
  atomic energy  EATOM  =      4973.55287360
  Solvation  Ediel_sol  =         0.00000000
  free energy    TOTEN  =       -60.12253539 eV

  energy without entropy =      -60.12458198  energy(sigma->0) =      -60.12321759

 average (electrostatic) potential at core
  the test charge radii are     1.0103  1.0452
  (the norm of the test charge is              1.0000)
       1 -43.4667       2 -43.4667       3 -43.4667       4 -43.4210       5 -43.4210
       6 -43.4210       7 -43.4210       8 -82.4005

 E-fermi :   5.9942     XC(G=0): -12.9932     alpha+bet :-13.6427

 Fermi energy:         5.9942475445

 k-point     1 :       0.0000    0.0000    0.0000
  band No.  band energies     occupation
      1      -2.2504      2.00000
      2       1.6993      2.00000
      3       1.7620      2.00000
      4       1.7620      2.00000
      5       1.7638      2.00000
      6       1.7638      2.00000
      7       1.7638      2.00000
      8       2.0715      2.00000
      9       2.0715      2.00000
     10       3.3693      2.00000
     11       3.3693      2.00000
     12       3.3693      2.00000
     13       3.3783      2.00000
     14       3.3783      2.00000
     15       3.3783      2.00000
     16       4.4575      2.00000
     17       4.4575      2.00000
     18       4.4575      2.00000
     19       5.7555      2.00377
     20       5.7555      2.00377
     21       5.9156      1.97309
     22       5.9156      1.97309
     23       5.9156      1.97309
     24       5.9321      1.85911
     25       5.9468      1.71133
     26       5.9468      1.71133
     27       6.0782      0.00102
     28       6.0782      0.00102
     29       6.1378     -0.06085
     30       6.1876     -0.01969
     31       6.1876     -0.01969
     32       6.1876     -0.01969
     33       6.4817     -0.00000
     34       6.4817     -0.00000
     35       6.4817     -0.00000
     36       6.5220     -0.00000
     37       6.5220     -0.00000
     38       6.5220     -0.00000
     39       6.8071     -0.00000
     40       6.8071     -0.00000
     41       6.8071     -0.00000
     42       7.0625     -0.00000
     43       7.0625     -0.00000
     44       7.0625     -0.00000
     45       7.1560     -0.00000
     46       7.1560     -0.00000
     47       7.1560     -0.00000
     48      13.2550      0.00000

[...]

 k-point    72 :       0.5000    0.5000    0.5000
  band No.  band energies     occupation
      1       1.6106      2.00000
      2       1.6998      2.00000
      3       1.6998      2.00000
      4       1.6998      2.00000
      5       1.7136      2.00000
      6       1.7136      2.00000
      7       3.3888      2.00000
      8       3.3888      2.00000
      9       3.3888      2.00000
     10       3.4162      2.00000
     11       3.4162      2.00000
     12       3.4162      2.00000
     13       3.9294      2.00000
     14       3.9294      2.00000
     15       3.9461      2.00000
     16       3.9964      2.00000
     17       3.9964      2.00000
     18       3.9964      2.00000
     19       4.7505      2.00000
     20       4.7505      2.00000
     21       4.7505      2.00000
     22       4.8714      2.00000
     23       4.8714      2.00000
     24       4.8714      2.00000
     25       4.9036      2.00000
     26       4.9036      2.00000
     27       4.9036      2.00000
     28       4.9102      2.00000
     29       4.9102      2.00000
     30       4.9102      2.00000
     31       5.5682      2.00000
     32       5.5682      2.00000
     33       5.5682      2.00000
     34       5.6748      2.00006
     35       5.6748      2.00006
     36       5.6989      2.00024
     37       6.0794     -0.00427
     38       6.0794     -0.00427
     39       6.2254     -0.00515
     40       6.2254     -0.00515
     41       6.8841     -0.00000
     42       6.8841     -0.00000
     43       6.9435     -0.00000
     44       7.0350     -0.00000
     45       7.0350     -0.00000
     46       7.0350     -0.00000
     47      14.6180      0.00000
     48      14.6180      0.00000

 soft charge-density along one line, spin component           1
         0         1         2         3         4         5         6         7         8         9
 total charge-density along one line

------------------------ aborting loop because EDIFF is reached ----------------------------------------

  FORCE on cell =-STRESS in cart. coord.  units (eV):
  Direction    XX          YY          ZZ          XY          YZ          ZX
  Alpha Z   452.49678   452.49678   452.49678
  Ewald   -1613.64318 -1613.64318 -1613.64318    -0.00000     0.00000    -0.00000
  Hartree   274.47253   274.47253   274.47253    -0.00000    -0.00000    -0.00000
  E(xc)    -315.94068  -315.94068  -315.94068    -0.00001    -0.00001    -0.00001
  Local     383.36987   383.36987   383.36987    -0.00011    -0.00011    -0.00011
  n-local  -200.19440  -200.52770  -201.78742    -0.40404     1.22021     1.17621
  augment   422.00271   422.00271   422.00271     0.00009     0.00009     0.00009
  Kinetic   582.58059   586.83277   585.07358    -8.97112    11.52771     7.92558
  Fock        0.00000     0.00000     0.00000     0.00000     0.00000     0.00000
  Total     -13.24949   -13.24949   -13.24949    -0.00000     0.00000    -0.00000
  in kB    -226.72058  -226.72058  -226.72058    -0.00000     0.00000    -0.00000

 VOLUME and BASIS-vectors are now :
  energy-cutoff  :      500.00
  volume of cell :       93.63
      direct lattice vectors                 reciprocal lattice vectors
    -2.860572000  2.860572000  2.860572000    -0.000000000  0.174790217  0.174790217
     2.860572000 -2.860572000  2.860572000     0.174790217 -0.000000000  0.174790217
     2.860572000  2.860572000 -2.860572000     0.174790217  0.174790217 -0.000000000

  length of vectors
     4.954656043  4.954656043  4.954656043     0.247190695  0.247190695  0.247190695

 FORCES acting on ions
    electron-ion (+dipol)            ewald-force                    non-local-force                 convergence-correction
   0.334E-12 -.187E-13 -.219E-13   0.899E-14 -.342E-15 0.670E-14   0.569E-25 0.186E-24 0.150E-24   0.135E-12 -.466E-13 -.135E-12
   -.543E-12 0.352E-13 0.197E-12   0.323E-14 0.531E-14 0.891E-14   0.252E-25 -.388E-24 0.182E-24   0.948E-13 0.523E-13 -.207E-13
   0.752E-12 0.992E-12 -.746E-12   0.553E-14 0.116E-14 0.960E-15   -.247E-25 0.787E-25 0.247E-25   0.337E-13 0.499E-13 -.456E-13
   0.158E-12 0.138E-12 -.208E-12   -.411E-14 -.537E-14 -.216E-14   -.105E-24 -.260E-24 -.205E-24   0.136E-12 -.601E-13 -.155E-12
   0.157E-12 -.198E-12 0.125E-12   -.757E-15 -.671E-14 0.757E-15   0.921E-25 0.157E-24 0.257E-24   0.128E-12 -.357E-13 -.113E-12
   -.939E-12 -.696E-12 0.946E-12   -.670E-14 0.345E-14 -.410E-14   -.109E-24 -.316E-24 0.543E-26   0.951E-13 0.560E-13 -.768E-13
   0.700E-12 0.423E-13 0.174E-12   -.474E-14 0.522E-14 -.307E-14   0.642E-25 -.246E-24 -.168E-24   0.848E-13 0.383E-13 -.315E-13
   -.216E-13 -.514E-13 -.776E-13   -.825E-15 -.309E-14 -.107E-13   0.659E-24 -.168E-24 0.168E-24   0.142E-12 -.567E-13 -.142E-12
   0.597E-12 0.242E-12 0.388E-12   0.626E-15 -.375E-15 -.272E-14   0.658E-24 -.957E-24 0.414E-24   0.849E-12 -.257E-14 -.719E-12

 POSITION                                       TOTAL-FORCE (eV/Angst)
      2.86057      0.00000      0.00000        -0.000000     -0.000000     -0.000000
      0.00000      0.00000      2.86057        -0.000000      0.000000     -0.000000
      0.00000      2.86057      0.00000         0.000000     -0.000000      0.000000
      1.43029      1.43029     -1.43029        -0.000000     -0.000000     -0.000000
      1.43029     -1.43029      1.43029         0.000000      0.000000      0.000000
     -1.43029      1.43029      1.43029        -0.000000      0.000000     -0.000000
      1.43029      1.43029      1.43029         0.000000     -0.000000      0.000000
      0.00000      0.00000      0.00000         0.000000      0.000000     -0.000000
    total drift:                                0.000000      0.000000     -0.000000

  FREE ENERGIE OF THE ION-ELECTRON SYSTEM (eV)
  free  energy   TOTEN  =       -60.12253539 eV

  energy  without entropy=      -60.12458198  energy(sigma->0) =      -60.12321759

 writing wavefunctions